TOUR_SECTION
126
174
19
101
31
115
106
89
133
164
49
48
54
152
68
47
168
87
160
134
161
74
111
197
51
142
8
9
172
64
170
162
135
117
141
83
128
107
169
12
3
186
28
13
153
182
85
155
136
22
171
143
93
5
42
46
189
154
91
16
72
10
67
139
35
181
20
45
39
44
57
193
144
21
176
179
14
196
70
150
33
199
109
122
200
148
86
163
125
149
95
84
73
114
158
32
6
129
88
66
198
58
194
183
132
103
17
23
173
25
80
56
1
110
137
90
130
105
192
76
180
120
156
184
65
40
29
53
118
60
63
188
100
79
4
92
82
119
81
190
145
77
167
69
96
104
146
99
30
34
127
165
52
55
195
98
175
36
24
26
78
140
159
166
43
121
27
177
97
7
94
157
147
18
71
41
2
37
131
191
123
15
62
178
59
38
138
116
113
112
61
75
124
50
102
11
108
185
151
187
-1
EOF